
  12    4
  10   10   10   10

   0   0   0   0   0   2 2 3 
   6  10  10  10  10   3 6 5 4 
   6  10  10  10  10   2 8 4 
   5  10  10  10  10   2 10 7 
   5  10  10  10  10   2 8 7 
   7  10  10  10  10   2 10 9 
   9  10  10  10  10   1 9 
   4  10  10  10  10   1 9 
   6  10  10  10  10   1 11 
   6  10  10  10  10   1 11 
   2  10  10  10  10   1 12
   0   0   0   0   0   0 
